Minimize
  - 8 y_0 - 21 y_2 - 8 y_3 - 19 y_4 - 2 y_5 - 16 y_6 - 22 y_7 - 17 y_8
   - 11 y_9 + 124 Constant
Subject To
 c_0: y_6 = 1
 c_1_0: y_0 >= 1
 c_1_1: y_1 + y_5 >= 1
 c_1_2: y_2 >= 1
 c_1_3: y_3 >= 1
 c_1_4: y_4 + y_8 >= 1
 c_1_5: y_1 + y_5 >= 1
 c_1_6: y_6 >= 1
 c_1_7: y_7 >= 1
 c_1_8: y_4 + y_8 >= 1
 c_1_9: y_9 >= 1
Bounds
 Constant = 1
Binaries
 y_0 y_1 y_2 y_3 y_4 y_5 y_6 y_7 y_8 y_9
End
